WARNING: for repeatability, setting FPU to use double precision
============================[ Problem Statistics ]=============================
|                                                                             |
|  Number of variables:            50                                         |
|  Number of clauses:             218                                         |
|  Parse time:                   0.00 s                                       |
|                                                                             |
============================[ Search Statistics ]==============================
| Conflicts |          ORIGINAL         |          LEARNT          | Progress |
|           |    Vars  Clauses Literals |    Limit  Clauses Lit/Cl |          |
===============================================================================
===============================================================================
restarts              : 1
conflicts             : 36             (23196 /sec)
decisions             : 51             (0.00 % random) (32861 /sec)
propagations          : 562            (362113 /sec)
conflict literals     : 135            (20.12 % deleted)
Memory used           : 20.00 MB
CPU time              : 0.001552 s

SATISFIABLE
